
******************************************************************************
This program contains Ipopt, a library for large-scale nonlinear optimization.
 Ipopt is released as open source code under the Eclipse Public License (EPL).
         For more information visit http://projects.coin-or.org/Ipopt

This version of Ipopt was compiled from source code available at
    https://github.com/IDAES/Ipopt as part of the Institute for the Design of
    Advanced Energy Systems Process Systems Engineering Framework (IDAES PSE
    Framework) Copyright (c) 2018-2019. See https://github.com/IDAES/idaes-pse.

This version of Ipopt was compiled using HSL, a collection of Fortran codes
    for large-scale scientific computation.  All technical papers, sales and
    publicity material resulting from use of the HSL codes within IPOPT must
    contain the following acknowledgement:
        HSL, a collection of Fortran codes for large-scale scientific
        computation. See http://www.hsl.rl.ac.uk.
******************************************************************************

This is Ipopt version 3.13.2, running with linear solver ma27.

Number of nonzeros in equality constraint Jacobian...:     1840
Number of nonzeros in inequality constraint Jacobian.:        0
Number of nonzeros in Lagrangian Hessian.............:     3296

Total number of variables............................:      640
                     variables with only lower bounds:      128
                variables with lower and upper bounds:      448
                     variables with only upper bounds:        0
Total number of equality constraints.................:      632
Total number of inequality constraints...............:        0
        inequality constraints with only lower bounds:        0
   inequality constraints with lower and upper bounds:        0
        inequality constraints with only upper bounds:        0

iter    objective    inf_pr   inf_du lg(mu)  ||d||  lg(rg) alpha_du alpha_pr  ls
   0  0.0000000e+00 2.84e+00 8.44e-15  -1.0 0.00e+00    -  0.00e+00 0.00e+00   0
   1  1.1498187e+01 2.28e+01 1.80e+03  -1.0 4.40e+04    -  5.67e-01 9.90e-01h  1
   2  1.1870959e+01 1.76e+01 4.34e+02  -1.0 3.99e+03    -  9.48e-01 9.90e-01h  1
   3  1.1750805e+01 3.41e-01 1.21e+02  -1.0 8.87e+02    -  9.89e-01 9.90e-01h  1
   4  1.1281068e+01 7.05e-02 4.23e+04  -1.0 4.66e+03    -  9.86e-01 9.90e-01h  1
   5  1.1273270e+01 5.79e-02 1.17e+04  -1.0 3.79e+02    -  9.90e-01 9.90e-01h  1
   6  1.1273330e+01 1.92e-02 9.84e+04  -2.5 7.90e+01    -  9.97e-01 9.97e-01h  1
   7  1.1273437e+01 8.30e-04 2.83e+09  -2.5 3.11e+01    -  1.00e+00 9.97e-01H  1
In iteration 7, 32 Slacks too small, adjusting variable bounds
   8  1.1273351e+01 3.57e-04 1.00e+12  -2.5 3.11e+00    -  1.00e+00 9.97e-01h  1
   9  1.1273352e+01 1.95e-08 2.89e-02  -2.5 4.16e-02    -  1.00e+00 1.00e+00h  1
iter    objective    inf_pr   inf_du lg(mu)  ||d||  lg(rg) alpha_du alpha_pr  ls
  10  1.1273324e+01 2.83e-05 8.46e+11  -9.0 3.81e+01    -  8.56e-01 1.56e-02h  7
  11  1.1273310e+01 3.06e-05 9.64e+11  -9.0 1.67e+02    -  8.39e-01 3.91e-03h  9
  12  1.1273301e+01 3.12e-05 9.80e+11  -9.0 2.54e+02    -  7.85e-01 1.95e-03h 10
  13  1.1273297e+01 3.14e-05 9.83e+11  -9.0 2.76e+02    -  7.90e-01 9.24e-04h 11
  14  1.1273292e+01 3.15e-05 9.83e+11  -9.0 2.84e+02    -  8.34e-01 8.98e-04h 11
  15  1.1268529e+01 2.02e+02 8.28e+10  -9.0 2.85e+02    -  9.13e-01 9.16e-01h  1
  16  1.1271406e+01 2.02e+02 8.28e+10  -9.0 3.71e+05    -  8.40e-08 1.30e-04h 12
  17  1.1273127e+01 2.02e+02 8.28e+10  -9.0 1.33e+05    -  6.94e-01 3.09e-04h  7
  18  1.1273263e+01 2.02e+02 8.28e+10  -9.0 1.33e+05    -  3.12e-04 2.42e-05h 16
  19  1.3947943e+02 5.30e+01 2.17e+10  -9.0 1.33e+05    -  7.37e-01 7.37e-01s 22
iter    objective    inf_pr   inf_du lg(mu)  ||d||  lg(rg) alpha_du alpha_pr  ls
  20r 1.3947943e+02 5.30e+01 1.00e+03   1.7 0.00e+00  -4.0 0.00e+00 0.00e+00R  1
  21r 1.3947944e+02 4.97e+01 9.95e+02   1.7 2.46e+04    -  1.02e-02 1.33e-04f  5
  22r 1.3947946e+02 7.90e+00 9.90e+02   1.0 7.71e+03    -  5.83e-03 6.39e-03f  1
  23r 1.3947943e+02 4.94e+00 9.47e+02   1.0 2.66e+02    -  1.45e-01 1.10e-02f  1
  24r 1.3948133e+02 7.64e+01 8.49e+02   1.0 7.23e+01    -  1.03e-01 1.03e-01f  1
  25r 1.3948095e+02 6.18e+01 5.53e+02   1.0 3.77e+01    -  1.00e+00 2.49e-01f  1
  26r 1.3948098e+02 3.51e+01 2.84e+02   1.0 1.34e+01    -  1.00e+00 7.84e-01f  1
  27r 1.3947695e+02 6.91e+00 3.48e+02   0.3 1.33e+01    -  1.00e+00 7.78e-01f  1
  28r 1.3947695e+02 2.49e+00 2.96e+02   0.3 4.61e+00   2.0 5.58e-01 6.41e-01f  1
  29r 1.3948171e+02 2.09e+00 7.38e+02   0.3 5.72e+01    -  6.58e-01 1.60e-01f  1
iter    objective    inf_pr   inf_du lg(mu)  ||d||  lg(rg) alpha_du alpha_pr  ls
  30r 1.3949403e+02 4.53e+00 1.20e+02   0.3 3.30e+01    -  1.00e+00 1.00e+00f  1
  31r 1.3949579e+02 3.58e+00 5.76e+02   0.3 4.76e+01    -  1.00e+00 2.08e-01f  1
  32r 1.3947290e+02 1.96e+00 6.59e+00   0.3 4.04e+01    -  1.00e+00 1.00e+00h  1
  33r 1.3948121e+02 2.88e+00 2.48e+02  -1.1 5.96e+01    -  4.81e-01 2.47e-01f  1
  34r 1.3949611e+02 2.56e+00 3.05e+02  -1.1 2.88e+02    -  5.25e-01 1.13e-01f  1
  35r 1.3947389e+02 1.01e+00 1.20e+02  -1.1 2.17e+02    -  6.25e-01 6.20e-01f  1
  36r 1.3951080e+02 9.65e-01 2.91e+02  -1.1 3.18e+02    -  4.54e-01 2.32e-01f  1
  37r 1.3948543e+02 1.98e-01 2.73e+02  -1.1 2.05e+02    -  5.13e-01 8.41e-01f  1
  38r 1.3951529e+02 5.52e-01 3.33e+02  -1.1 1.74e+02    -  4.36e-01 9.77e-01f  1
  39r 1.3944824e+02 1.98e-01 4.21e+00  -1.1 1.80e+02    -  1.00e+00 1.00e+00H  1
iter    objective    inf_pr   inf_du lg(mu)  ||d||  lg(rg) alpha_du alpha_pr  ls
  40r 1.3945539e+02 6.32e-01 2.97e+02  -1.1 1.86e+02    -  3.99e-01 1.08e-01f  1
  41r 1.3945536e+02 1.88e-01 8.16e+01  -1.1 3.32e+01    -  7.89e-01 1.00e+00H  1
  42r 1.3946148e+02 1.42e-01 3.06e+02  -1.1 2.03e+02    -  3.48e-01 4.42e-02f  1
  43r 1.3945360e+02 1.42e-01 4.28e+00  -1.1 1.62e+01    -  1.00e+00 1.00e+00H  1
  44r 1.3945696e+02 1.42e-01 5.91e+01  -1.1 3.00e+02    -  6.64e-02 1.93e-02f  2
  45r 1.3944733e+02 2.28e-01 6.62e+01  -1.1 2.48e+02    -  8.28e-02 1.31e-01f  1
  46r 1.3946408e+02 1.42e-01 3.34e-01  -1.1 5.78e+01    -  1.00e+00 1.00e+00h  1
  47r 1.3945075e+02 1.48e-01 1.05e+02  -2.7 3.49e+01    -  5.50e-01 8.47e-01f  1
  48r 1.3940923e+02 1.46e-01 2.37e+02  -2.7 1.62e+03    -  6.29e-01 2.10e-01f  1
  49r 1.3945954e+02 1.46e-01 1.30e+03  -2.7 1.28e+03    -  7.23e-01 1.54e-01f  1
iter    objective    inf_pr   inf_du lg(mu)  ||d||  lg(rg) alpha_du alpha_pr  ls
  50r 1.3945954e+02 1.48e-01 6.38e+01  -2.7 1.86e-02   1.5 1.00e+00 8.34e-01f  1
  51r 1.3945954e+02 1.49e-01 1.27e+01  -2.7 4.97e-02   1.0 7.82e-01 7.75e-01f  1
  52r 1.3945954e+02 1.49e-01 2.06e+02  -2.7 4.40e-02   0.6 1.00e+00 3.81e-01f  1
  53r 1.3945954e+02 1.49e-01 2.19e+02  -2.7 4.13e-02   0.1 1.00e+00 5.21e-01f  1
  54r 1.3945953e+02 1.49e-01 7.88e+01  -2.7 7.64e-02  -0.4 1.00e+00 6.40e-01f  1
  55r 1.3945953e+02 1.49e-01 6.02e+02  -2.7 1.66e-01  -0.9 1.00e+00 2.07e-01f  1
  56r 1.3945954e+02 1.49e-01 3.48e+02  -2.7 1.64e-01  -1.3 2.59e-01 2.83e-01f  1
  57r 1.3945953e+02 1.49e-01 4.05e+02  -2.7 6.01e-01  -1.8 1.87e-01 9.90e-02f  1
  58r 1.3945945e+02 1.48e-01 1.90e+02  -2.7 1.31e+00  -2.3 1.00e+00 3.03e-01f  1
  59r 1.3945943e+02 1.48e-01 1.12e+02  -2.7 5.39e-01  -1.9 4.53e-01 3.92e-01f  1
iter    objective    inf_pr   inf_du lg(mu)  ||d||  lg(rg) alpha_du alpha_pr  ls
  60r 1.3945934e+02 1.47e-01 6.82e+01  -2.7 1.07e+00  -2.3 7.43e-01 3.39e-01f  1
  61r 1.3974852e+02 1.45e-01 1.13e+02  -2.7 1.08e+03    -  3.29e-01 1.00e+00f  1
  62r 1.3974309e+02 1.45e-01 3.15e+01  -2.7 1.41e+01    -  1.00e+00 3.91e-01h  1
  63r 1.3974146e+02 1.45e-01 3.11e-04  -2.7 3.56e+00    -  1.00e+00 1.00e+00h  1
  64r 1.3974190e+02 1.46e-01 5.95e+00  -6.0 6.37e+00    -  8.59e-01 9.63e-01f  1
  65r 1.3974179e+02 1.44e-01 2.94e+01  -6.0 1.11e+01  -2.8 1.22e-01 9.66e-02f  1
  66r 1.3974158e+02 1.38e-01 1.45e+02  -6.0 8.44e+00  -2.4 2.51e-01 4.80e-01f  1
  67r 1.3974158e+02 1.38e-01 1.44e+02  -6.0 1.59e+01  -2.9 1.59e-05 3.33e-03f  1
  68r 1.3974096e+02 1.32e-01 1.19e+02  -6.0 3.36e+01  -3.4 4.15e-02 1.75e-01f  1
  69r 1.3974083e+02 1.32e-01 1.19e+02  -6.0 1.63e+02  -3.8 1.78e-04 4.66e-03f  1
iter    objective    inf_pr   inf_du lg(mu)  ||d||  lg(rg) alpha_du alpha_pr  ls
  70r 1.3974083e+02 1.32e-01 1.19e+02  -6.0 3.35e+01  -3.4 1.84e-01 1.04e-05f  1
  71r 1.3973832e+02 1.22e-01 3.75e+02  -6.0 2.09e+02  -3.9 1.26e-03 6.82e-02f  1
  72r 1.3973832e+02 1.22e-01 2.72e+02  -6.0 9.49e+01  -4.4 1.08e-01 5.40e-05h  1
  73r 1.3971342e+02 1.20e-01 2.73e+02  -6.0 2.41e+02  -4.8 5.16e-01 2.17e-01f  1
  74r 1.3950294e+02 9.81e+00 3.95e+02  -6.0 7.44e+02  -5.3 1.09e-05 5.88e-01f  1
  75r 1.3888973e+02 1.09e+03 2.49e+03  -6.0 1.98e+03  -5.8 8.40e-03 6.58e-01f  1
  76r 1.3888975e+02 1.09e+03 2.49e+03  -6.0 3.37e+02  -1.7 1.14e-04 4.97e-03h  1
  77r 1.3888976e+02 9.63e+02 2.31e+03  -6.0 1.05e+01  -1.3 8.00e-04 1.12e-01h  1
  78r 1.3888976e+02 9.29e+02 1.90e+03  -6.0 1.10e+01  -0.9 4.17e-01 3.57e-02h  1
  79r 1.3888979e+02 7.48e+02 1.62e+03  -6.0 1.37e+01  -1.4 3.56e-06 1.76e-01h  1
iter    objective    inf_pr   inf_du lg(mu)  ||d||  lg(rg) alpha_du alpha_pr  ls
  80r 1.3888979e+02 7.48e+02 1.57e+03  -6.0 8.19e+00  -0.9 1.29e-01 5.61e-07h  2
  81r 1.3888981e+02 6.92e+02 1.50e+03  -6.0 6.91e+01  -1.4 6.47e-03 5.37e-02h  3
  82r 1.3888982e+02 5.58e+02 1.25e+03  -6.0 7.54e+00  -1.0 6.23e-02 1.92e-01h  1
  83r 1.3888982e+02 5.58e+02 1.25e+03  -6.0 7.16e+00  -0.6 0.00e+00 2.07e-07R  2
  84r 1.3888983e+02 5.40e+02 1.27e+03  -6.0 2.91e+03  -1.1 1.82e-08 2.13e-03f  2
  85r 1.3888983e+02 5.05e+02 1.21e+03  -6.0 1.98e+03  -0.6 1.42e-02 6.65e-03f  1
  86r 1.3888983e+02 4.98e+02 1.21e+03  -6.0 2.60e+03  -1.1 7.25e-04 9.25e-04f  5
  87r 1.3888983e+02 4.56e+02 1.25e+03  -6.0 1.88e+03  -0.7 2.92e-07 8.12e-03f  4
  88r 1.3888983e+02 4.55e+02 1.24e+03  -6.0 3.54e+03  -1.2 4.49e-04 6.30e-05f  6
  89r 1.3888983e+02 4.26e+02 1.28e+03  -6.0 5.37e+02   0.2 4.27e-03 2.03e-02f  4
iter    objective    inf_pr   inf_du lg(mu)  ||d||  lg(rg) alpha_du alpha_pr  ls
  90r 1.3888983e+02 4.00e+02 1.27e+03  -6.0 1.13e+03  -0.3 1.17e-05 8.61e-03f  5
  91r 1.3888984e+02 2.23e+02 1.32e+03  -6.0 1.76e+03  -0.8 4.47e-04 2.39e-02f  1
  92r 1.3888984e+02 6.12e+01 1.34e+03  -6.0 9.87e+02  -0.4 2.95e-03 4.48e-02f  1
  93r 1.3888984e+02 6.12e+01 1.34e+03  -6.0 8.85e+02  -0.8 1.70e-02 9.30e-09f  1
  94r 1.3888984e+02 5.51e+01 1.24e+03  -6.0 6.02e+02  -0.4 1.20e-01 7.55e-02f  1
  95r 1.3888985e+02 5.96e+01 1.20e+03  -6.0 8.70e+01  -0.9 6.04e-04 3.08e-02f  1
  96r 1.3888985e+02 6.60e+01 1.12e+03  -6.0 7.06e+01  -1.4 3.29e-02 6.39e-02f  1
  97r 1.3888985e+02 6.65e+01 1.09e+03  -6.0 3.59e+01  -1.8 1.21e-01 3.10e-02f  1
  98r 1.3888986e+02 5.95e+01 8.52e+02  -6.0 1.95e+01  -1.4 3.51e-02 1.98e-01f  1
  99r 1.3888986e+02 5.95e+01 8.52e+02  -6.0 1.41e+01  -1.9 2.39e-02 2.05e-05f  1
iter    objective    inf_pr   inf_du lg(mu)  ||d||  lg(rg) alpha_du alpha_pr  ls
 100r 1.3888986e+02 3.90e+01 6.72e+02  -6.0 5.19e+00  -1.5 2.69e-03 2.93e-01f  1
 101r 1.3888987e+02 3.83e+01 6.72e+02  -6.0 1.49e+01  -1.9 3.66e-04 3.06e-02f  1
 102r 1.3888987e+02 3.27e+01 4.59e+02  -6.0 3.65e+00  -1.5 5.44e-01 1.27e-01f  1
 103r 1.3888987e+02 3.27e+01 5.70e+02  -6.0 1.46e+01  -2.0 2.30e-01 3.61e-07h  1
 104r 1.3888987e+02 1.34e+01 3.67e+02  -6.0 3.03e+00  -1.6 7.79e-01 5.93e-01f  1
 105r 1.3888986e+02 1.01e+01 2.62e+02  -6.0 5.60e+00  -2.0 8.67e-05 2.33e-01f  1
 106r 1.3888986e+02 9.32e+00 3.19e+02  -6.0 5.42e+00  -1.6 8.40e-01 8.10e-02f  1
 107r 1.3888983e+02 6.49e+00 2.46e+02  -6.0 9.12e+00  -2.1 6.40e-02 2.82e-01f  1
 108r 1.3888983e+02 6.19e+00 8.13e+02  -6.0 7.05e+00  -1.7 8.11e-01 4.60e-02f  1
 109r 1.3888980e+02 5.38e+00 9.62e+02  -6.0 1.73e+01  -2.1 3.17e-01 9.56e-02f  1
iter    objective    inf_pr   inf_du lg(mu)  ||d||  lg(rg) alpha_du alpha_pr  ls
 110r 1.3888974e+02 1.94e+00 1.39e+02  -6.0 6.09e+00  -1.7 1.00e+00 8.75e-01f  1
 111r 1.3888974e+02 1.94e+00 5.40e+02  -6.0 1.42e+01  -2.2 4.13e-01 1.22e-06h  1
 112r 1.3888958e+02 6.45e+00 2.80e+02  -6.0 9.95e+01  -2.7 3.62e-07 3.17e-01f  1
 113r 1.3888958e+02 6.35e+00 2.74e+02  -6.0 1.83e+02  -2.2 1.63e-02 7.41e-03f  1
 114r 1.3888958e+02 6.35e+00 2.74e+02  -6.0 5.24e+02  -2.7 1.58e-07 7.10e-08h  1
 115r 1.3888957e+02 6.26e+00 3.71e+02  -6.0 5.46e+01  -2.3 3.93e-02 1.67e-02f  1
 116r 1.3888957e+02 6.26e+00 3.71e+02  -6.0 1.81e+02  -2.8 4.30e-06 3.42e-06h  1
 117r 1.3888957e+02 6.26e+00 1.17e+03  -6.0 4.07e+01  -2.3 3.01e-01 9.31e-04f  1
 118r 1.3888964e+02 8.48e+00 1.16e+03  -6.0 2.44e+02  -2.8 1.84e-01 1.30e-01f  1
 119r 1.3888964e+02 8.48e+00 1.14e+03  -6.0 1.07e+03  -3.3 3.17e-03 9.34e-05h  1
iter    objective    inf_pr   inf_du lg(mu)  ||d||  lg(rg) alpha_du alpha_pr  ls
 120r 1.3888972e+02 7.96e+00 1.06e+03  -6.0 1.40e+02  -2.9 2.83e-01 8.81e-02f  1
 121r 1.3888972e+02 7.96e+00 1.33e+03  -6.0 2.17e+00   0.3 7.35e-02 5.31e-06h  1
 122r 1.3888972e+02 7.94e+00 1.31e+03  -6.0 2.19e+00   0.7 4.33e-03 2.06e-03h  1
 123r 1.3888972e+02 7.87e+00 1.53e+03  -6.0 3.07e+00   0.2 5.14e-04 8.59e-03h  1
 124r 1.3888972e+02 7.18e+00 1.42e+03  -6.0 2.57e+00  -0.3 1.46e-01 8.73e-02f  1
 125r 1.3888972e+02 7.18e+00 1.42e+03  -6.0 1.87e+00   0.2 7.90e-03 3.68e-06h  1
 126r 1.3888972e+02 7.11e+00 5.85e+02  -6.0 1.62e+00   0.6 3.64e-02 9.79e-03f  1
 127r 1.3888971e+02 4.45e+00 1.17e+03  -6.0 1.83e+00   0.1 2.92e-02 3.69e-01f  1
 128r 1.3888971e+02 4.45e+00 8.34e+02  -6.0 2.16e+00  -0.4 7.11e-01 5.20e-05h  1
 129r 1.3888971e+02 3.94e+00 1.38e+03  -6.0 2.23e+00  -0.8 1.00e+00 1.14e-01f  1
iter    objective    inf_pr   inf_du lg(mu)  ||d||  lg(rg) alpha_du alpha_pr  ls
 130r 1.3888971e+02 3.39e+00 9.28e+02  -6.0 4.21e+00  -1.3 3.39e-01 1.43e-01f  1
 131r 1.3888971e+02 3.29e+00 1.23e+03  -6.0 1.27e+01  -1.8 5.92e-01 2.93e-02f  1
 132r 1.3888742e+02 3.29e+00 1.23e+03  -6.0 3.83e+05    -  1.52e-04 1.14e-05f  1
 133r 1.3225811e+02 3.00e+00 1.56e+03  -6.0 3.84e+05    -  1.80e-01 3.92e-02f  1
 134r 1.3225807e+02 1.52e+00 1.41e+03  -6.0 1.30e+01  -2.3 7.08e-06 5.40e-01f  1
 135r 1.3225803e+02 8.52e-01 1.38e+03  -6.0 5.29e+01  -2.8 2.30e-01 5.03e-01f  1
 136r 1.3225803e+02 8.52e-01 1.24e+03  -6.0 6.19e+01  -3.2 3.86e-02 6.93e-07h  1
 137r 1.3225774e+02 8.13e-01 1.17e+03  -6.0 2.02e+02  -2.8 8.43e-06 5.47e-02f  1
 138r 1.3225774e+02 8.13e-01 1.70e+03  -6.0 7.79e+01  -3.3 8.10e-01 3.51e-07h  1
 139r 1.3225774e+02 8.13e-01 2.00e+03  -6.0 3.40e+01  -3.8 1.26e-01 1.93e-06h  1
iter    objective    inf_pr   inf_du lg(mu)  ||d||  lg(rg) alpha_du alpha_pr  ls
 140r 1.3225721e+02 7.92e-01 1.83e+03  -6.0 5.60e+01  -4.2 2.08e-07 2.85e-02f  1
 141r 1.3223629e+02 1.97e+00 9.29e+02  -6.0 6.79e+01  -4.7 9.29e-01 4.98e-01f  1
 142r 1.2764701e+02 1.93e+00 9.01e+02  -6.0 2.74e+05    -  2.23e-07 1.86e-02f  1
 143r 1.2764701e+02 1.93e+00 2.00e+03  -6.0 1.12e+02  -5.2 2.79e-01 2.18e-07h  2
 144r 1.2758323e+02 1.45e+00 6.76e+02  -6.0 3.72e+02  -5.7 4.36e-07 2.49e-01f  1
 145r 1.2758320e+02 1.45e+00 9.40e+02  -6.0 2.66e+05    -  7.95e-02 2.10e-07h  1
 146r 1.2329565e+02 1.38e+00 9.14e+02  -6.0 1.61e+05    -  5.45e-02 5.06e-02f  1
 147r 1.2329565e+02 1.38e+00 2.00e+03  -6.0 4.63e+02  -6.1 2.94e-01 1.46e-06h  1
 148r 1.2289257e+02 1.49e+00 4.29e+02  -6.0 1.09e+03  -6.6 6.42e-07 3.31e-01f  1
 149r 1.2289256e+02 1.49e+00 1.39e+03  -6.0 7.00e+03  -7.1 5.60e-01 2.15e-06h  1
iter    objective    inf_pr   inf_du lg(mu)  ||d||  lg(rg) alpha_du alpha_pr  ls
 150r 1.1980528e+02 2.83e+02 3.47e+02  -6.0 1.01e+04  -7.6 1.17e-06 4.43e-01f  1
 151r 1.1980519e+02 5.07e+01 2.81e+02  -6.0 8.03e+01  -2.6 1.09e-01 2.54e-01h  1
 152r 1.1980519e+02 5.07e+01 6.88e+02  -6.0 2.14e+01  -3.1 6.43e-01 1.61e-06h  1
 153r 1.2023395e+02 4.98e+01 6.59e+02  -6.0 1.56e+05    -  7.10e-03 1.74e-02f  1
 154r 1.2023385e+02 4.98e+01 8.72e+02  -6.0 7.36e+04    -  1.90e-01 1.07e-05h  1
 155r 1.2023385e+02 4.98e+01 8.66e+02  -6.0 9.70e+01  -3.6 5.69e-05 2.48e-04h  1
 156r 1.2023284e+02 4.90e+01 1.60e+03  -6.0 2.41e+02  -4.1 1.72e-04 1.23e-02f  1
 157r 1.2023284e+02 4.90e+01 1.47e+03  -6.0 9.28e+01  -3.6 1.18e-01 2.51e-06h  1
 158r 1.2023125e+02 4.82e+01 2.76e+03  -6.0 6.36e+02  -4.1 6.03e-08 5.62e-03f  1
 159r 1.2023106e+02 4.76e+01 2.69e+03  -6.0 2.38e+02  -3.7 3.36e-02 1.22e-02f  1
iter    objective    inf_pr   inf_du lg(mu)  ||d||  lg(rg) alpha_du alpha_pr  ls
 160r 1.2023106e+02 4.76e+01 3.62e+03  -6.0 2.38e+02  -4.2 1.06e-02 2.69e-05h  1
 161r 1.2023437e+02 4.69e+01 2.74e+03  -6.0 6.59e+02  -4.6 1.27e-03 1.18e-02f  1
 162r 1.2023139e+02 4.00e+01 1.71e+03  -6.0 5.99e+01  -5.1 2.67e-01 1.86e-01h  1
 163r 1.2026369e+02 3.35e+01 1.11e+03  -6.0 4.96e+02  -5.6 8.96e-02 1.91e-01h  1
 164r 1.2026325e+02 1.26e+01 1.43e+03  -6.0 2.38e+01  -3.4 1.04e-05 6.64e-01f  1
 165r 1.2026325e+02 1.26e+01 1.26e+03  -6.0 1.97e+02  -3.8 5.34e-02 1.28e-07h  2
 166r 1.2026301e+02 1.08e+01 1.12e+03  -6.0 4.93e+01  -3.4 2.81e-01 1.21e-01f  1
 167r 1.2026301e+02 1.08e+01 1.12e+03  -6.0 8.13e+01  -3.9 6.82e-07 3.85e-06h  1
 168r 1.2026219e+02 1.06e+01 1.12e+03  -6.0 2.27e+02  -4.4 2.72e-02 1.77e-02f  1
 169r 1.2026129e+02 1.05e+01 1.15e+03  -6.0 2.07e+02  -4.9 1.92e-02 8.22e-03f  1
iter    objective    inf_pr   inf_du lg(mu)  ||d||  lg(rg) alpha_du alpha_pr  ls
 170r 1.2025226e+02 9.80e+00 1.06e+03  -6.0 2.59e+02  -5.3 1.09e-01 5.99e-02f  1
 171r 1.2024403e+02 9.80e+00 1.09e+03  -6.0 3.54e+04  -5.8 7.12e-09 4.51e-04f  1
 172r 1.2018435e+02 8.87e+00 9.93e+02  -6.0 1.26e+03  -6.3 6.93e-02 8.69e-02f  1
 173r 1.2007835e+02 8.31e+00 1.28e+03  -6.0 2.95e+03  -6.8 5.73e-04 6.15e-02f  1
 174r 1.2003094e+02 8.24e+00 1.17e+03  -6.0 6.81e+03  -7.2 2.70e-02 1.20e-02f  1
 175r 1.2003094e+02 8.24e+00 1.17e+03  -6.0 1.46e+07    -  3.47e-04 6.05e-09h  1
 176r 1.2003085e+02 8.24e+00 1.17e+03  -6.0 2.33e+03  -4.1 4.96e-08 2.67e-03f  1
 177r 1.2002889e+02 7.30e+00 1.05e+03  -6.0 1.71e+02  -4.6 5.75e-02 1.07e-01f  1
 178r 1.2002870e+02 5.60e+00 9.12e+02  -6.0 2.88e+01  -3.3 6.20e-01 1.55e-01f  1
 179r 1.2002862e+02 5.42e+00 8.81e+02  -6.0 4.11e+01  -3.7 7.75e-02 3.12e-02h  1
iter    objective    inf_pr   inf_du lg(mu)  ||d||  lg(rg) alpha_du alpha_pr  ls
 180r 1.2002766e+02 5.33e+00 8.58e+02  -6.0 1.37e+03  -4.2 2.14e-07 1.63e-02f  1
 181r 1.2002766e+02 5.33e+00 9.05e+02  -6.0 4.38e+02  -4.7 1.15e-01 7.79e-07h  1
 182r 1.2001594e+02 5.17e+00 8.70e+02  -6.0 7.10e+02  -5.2 2.43e-02 3.04e-02f  1
 183r 1.2001593e+02 5.17e+00 8.55e+02  -6.0 1.31e+05    -  5.44e-02 1.14e-06h  1
 184r 1.2081833e+02 4.79e+00 7.94e+02  -6.0 1.52e+05    -  9.22e-08 7.36e-02f  1
 185r 1.2081834e+02 4.79e+00 8.29e+02  -6.0 9.81e+04    -  1.05e-01 1.44e-06h  1
 186r 1.2080162e+02 4.58e+00 7.52e+02  -6.0 7.26e+02  -5.6 3.49e-03 4.28e-02f  1
 187r 1.2047654e+02 4.30e+00 8.88e+02  -6.0 7.03e+04    -  5.02e-01 6.04e-02f  1
 188r 1.2109520e+02 3.95e+00 8.22e+02  -6.0 6.42e+04    -  1.24e-06 8.22e-02f  1
 189r 1.2111860e+02 3.94e+00 9.67e+02  -6.0 6.28e+04    -  5.37e-01 1.54e-03f  1
iter    objective    inf_pr   inf_du lg(mu)  ||d||  lg(rg) alpha_du alpha_pr  ls
 190r 1.2133674e+02 3.89e+00 1.07e+03  -6.0 5.89e+04    -  3.94e-01 1.47e-02f  1
 191r 1.2368128e+02 3.31e+00 1.30e+03  -6.0 5.81e+04    -  1.00e+00 1.47e-01f  1
 192r 1.2368462e+02 3.31e+00 1.29e+03  -6.0 4.97e+04    -  4.07e-02 9.33e-05h  1
 193r 1.2512272e+02 3.19e+00 1.16e+03  -6.0 4.97e+04    -  6.31e-01 3.85e-02f  1
 194r 1.2808259e+02 2.90e+00 1.04e+03  -6.0 4.78e+04    -  2.75e-06 9.04e-02f  1
 195r 1.2857375e+02 2.85e+00 1.19e+03  -6.0 4.35e+04    -  7.39e-01 1.59e-02f  1
 196r 1.4573366e+02 1.83e+00 7.28e+02  -6.0 4.28e+04    -  5.30e-02 3.59e-01f  1
 197r 1.4759098e+02 1.73e+00 9.79e+02  -6.0 2.76e+04    -  1.00e+00 5.39e-02f  1
 198r 1.5318957e+02 1.42e+00 8.17e+02  -6.0 2.62e+04    -  6.86e-01 1.77e-01f  1
 199r 1.5450093e+02 1.34e+00 7.68e+02  -6.0 2.16e+04    -  1.57e-01 5.67e-02f  1
iter    objective    inf_pr   inf_du lg(mu)  ||d||  lg(rg) alpha_du alpha_pr  ls
 200r 1.5779685e+02 1.11e+00 4.89e+02  -6.0 2.04e+04    -  1.00e+00 1.73e-01f  1
 201r 1.6146255e+02 8.76e-01 3.85e+02  -6.0 1.69e+04    -  1.94e-01 2.12e-01f  1
 202r 1.6268875e+02 7.62e-01 3.48e+02  -6.0 1.33e+04    -  1.00e+00 1.30e-01h  1
 203r 1.6636275e+02 4.57e-01 2.44e+02  -6.0 1.16e+04    -  1.00e+00 4.00e-01h  1
 204r 1.7222122e+02 7.87e-02 1.43e+01  -6.0 6.97e+03    -  6.41e-01 9.91e-01h  1
 205r 1.7226355e+02 7.87e-02 1.35e+00  -6.0 7.44e+01    -  1.00e+00 6.98e-01h  1
 206r 1.7228034e+02 7.87e-02 1.82e-06  -6.0 2.24e+01    -  1.00e+00 1.00e+00f  1
 207r 1.7228060e+02 7.87e-02 1.96e-03  -9.0 4.51e-01    -  1.00e+00 1.00e+00f  1
 208r 1.7228672e+02 7.87e-02 1.67e+01  -9.0 2.34e+02  -6.1 1.07e-01 1.13e-01f  1
 209r 1.7234904e+02 7.86e-02 8.14e+02  -9.0 6.98e+02  -6.6 8.35e-02 4.14e-01f  1
iter    objective    inf_pr   inf_du lg(mu)  ||d||  lg(rg) alpha_du alpha_pr  ls
 210r 1.7237451e+02 7.86e-02 7.73e+02  -9.0 2.05e+03  -7.1 1.22e-01 5.56e-02f  1
 211r 1.7257954e+02 7.80e-02 1.24e+03  -9.0 5.84e+03  -7.5 2.07e-02 4.12e-01f  1
In iteration 211, 1 Slack too small, adjusting variable bound
 212r 1.7263837e+02 7.79e-02 9.98e+02  -9.0 1.49e+04  -8.0 1.11e-01 2.35e-02f  1
 213r 1.7653785e+02 7.53e-02 1.18e+03  -9.0 5.04e+04  -8.5 4.32e-02 1.74e-01f  1
 214r 1.7653785e+02 7.53e-02 1.18e+03  -9.0 8.20e+06  -9.0 0.00e+00 9.91e-16R 16
 215r 1.7653785e+02 7.53e-02 1.17e+03  -9.0 6.96e+04  -8.5 3.86e-03 4.59e-13f 13
 216r 1.7653773e+02 7.53e-02 1.38e+03  -9.0 4.01e+02  -6.3 5.23e-01 2.53e-03f  1
 217r 1.7665482e+02 7.52e-02 1.67e+03  -9.0 9.93e+02  -6.8 7.30e-03 3.72e-01f  2
 218r 1.7665323e+02 7.51e-02 1.63e+03  -9.0 4.08e+02  -6.4 1.38e-01 2.43e-02f  6
 219r 1.7665087e+02 7.51e-02 1.67e+03  -9.0 3.30e+03  -6.8 2.12e-02 2.86e-03f  7
iter    objective    inf_pr   inf_du lg(mu)  ||d||  lg(rg) alpha_du alpha_pr  ls
 220r 1.7664864e+02 7.51e-02 1.63e+03  -9.0 5.14e+02  -6.4 3.01e-02 2.71e-02f  6
 221r 1.7664792e+02 7.51e-02 1.80e+03  -9.0 4.06e+03  -6.9 5.42e-02 6.85e-04f  9
 222r 1.7656720e+02 9.57e-01 6.22e+02  -9.0 6.18e+02  -6.5 1.39e-01 8.88e-01f  1
 223r 1.7654753e+02 9.30e-01 6.64e+02  -9.0 2.36e+03  -6.9 4.82e-03 8.10e-02f  1
In iteration 223, 1 Slack too small, adjusting variable bound
 224r 1.7643137e+02 1.23e+00 7.63e+02  -9.0 7.56e+04  -7.4 2.53e-03 7.44e-03f  1
 225r 1.7641984e+02 1.23e+00 7.61e+02  -9.0 1.59e+04  -7.0 2.01e-02 3.26e-03h  1
 226r 1.7621427e+02 1.57e+00 4.99e+02  -9.0 1.17e+03  -6.6 4.81e-02 9.68e-01f  1
 227r 1.7625226e+02 1.22e+00 3.29e+02  -9.0 1.95e+03  -7.1 3.84e-01 2.71e-01f  1
 228r 1.7721207e+02 1.93e+00 2.79e+02  -9.0 5.99e+03  -7.5 4.46e-03 5.96e-01f  1
 229r 1.7738473e+02 1.89e+00 1.26e+03  -9.0 2.39e+04  -8.0 1.84e-01 2.66e-02f  1
iter    objective    inf_pr   inf_du lg(mu)  ||d||  lg(rg) alpha_du alpha_pr  ls
 230r 1.7821027e+02 1.85e+00 1.22e+03  -9.0 1.05e+05  -8.5 4.27e-09 2.84e-02f  1
 231r 1.7821083e+02 1.85e+00 1.22e+03  -9.0 4.18e+04  -8.1 5.25e-02 2.44e-05h  1
 232r 1.7998524e+02 3.45e+00 1.19e+03  -9.0 1.81e+05  -8.5 1.35e-02 2.27e-02f  1
 233r 1.8093194e+02 3.18e+00 1.11e+03  -9.0 2.21e+04  -8.1 5.64e-01 6.50e-02f  1
 234r 1.8216178e+02 3.13e+00 1.09e+03  -9.0 1.30e+05  -8.6 4.58e-02 1.71e-02f  1
 235r 1.8254394e+02 3.06e+00 1.07e+03  -9.0 2.12e+04  -8.2 2.94e-01 2.25e-02f  1
 236r 1.8356842e+02 2.96e+00 1.40e+03  -9.0 7.28e+04  -8.6 9.05e-01 3.14e-02f  1
 237r 1.8356842e+02 2.96e+00 1.40e+03  -9.0 1.64e+04  -8.2 0.00e+00 2.74e-11R  6
 238r 1.8356842e+02 2.96e+00 1.39e+03  -9.0 5.20e+04  -8.7 1.33e-02 5.17e-10f  1
 239r 1.8364225e+02 2.09e+00 1.18e+03  -9.0 1.95e+04  -8.3 2.43e-01 2.52e-03f  3
iter    objective    inf_pr   inf_du lg(mu)  ||d||  lg(rg) alpha_du alpha_pr  ls
 240r 1.8382617e+02 1.55e+00 1.18e+03  -9.0 6.82e+04  -8.7 3.80e-02 3.37e-03f  3
 241r 1.8388280e+02 1.35e+00 1.22e+03  -9.0 2.12e+04  -8.3 1.00e+00 2.24e-03f  4
 242r 1.8391974e+02 1.30e+00 1.23e+03  -9.0 8.57e+04  -8.8 3.10e-02 6.39e-04f  6
 243r 1.8391974e+02 1.29e+00 1.38e+03  -9.0 6.15e+01  -0.9 4.85e-03 9.42e-03F  1
 244r 1.8391974e+02 1.27e+00 1.47e+03  -9.0 6.25e+01  -1.4 3.44e-02 1.62e-02f  1
 245r 1.8391974e+02 8.93e-01 1.10e+03  -9.0 1.33e+02  -1.9 4.43e-11 6.86e-02f  1
 246r 1.8391974e+02 4.74e-01 1.22e+03  -9.0 8.55e+02  -2.4 1.42e-02 6.05e-03f  1
 247r 1.8391974e+02 4.74e-01 1.22e+03  -9.0 3.88e+01  -2.9 0.00e+00 4.76e-14R 11
 248r 1.8391974e+02 4.74e-01 1.32e+03  -9.0 2.71e+01  -3.3 2.57e-02 5.59e-11f  1
 249r 1.8391982e+02 4.21e-01 9.19e+02  -9.0 4.40e+02  -3.8 6.76e-02 1.89e-02f  1
iter    objective    inf_pr   inf_du lg(mu)  ||d||  lg(rg) alpha_du alpha_pr  ls
 250r 1.8392050e+02 2.66e-01 8.96e+02  -9.0 3.59e+02  -4.3 2.43e-02 8.18e-02f  1
 251r 1.8392074e+02 2.02e-01 8.71e+02  -9.0 2.25e+02  -4.8 2.80e-02 5.89e-02f  1
 252r 1.8392071e+02 1.93e-01 8.65e+02  -9.0 2.68e+02  -5.2 7.44e-03 9.05e-03f  1
 253r 1.8392033e+02 1.65e-01 8.83e+02  -9.0 1.01e+03  -5.7 3.73e-07 3.25e-02f  1
 254r 1.8392047e+02 1.65e-01 8.83e+02  -9.0 7.07e+02  -6.2 5.06e-03 6.51e-04f  1
 255r 1.8392051e+02 1.63e-01 8.60e+02  -9.0 1.11e+03  -5.8 1.64e-07 2.83e-03f  1
 256r 1.8392277e+02 1.59e-01 8.60e+02  -9.0 1.23e+04  -6.2 7.52e-04 4.31e-03f  1
 257r 1.8392361e+02 1.52e-01 8.90e+02  -9.0 2.20e+03  -5.8 1.82e-02 7.97e-03f  1
 258r 1.8392566e+02 1.49e-01 8.45e+02  -9.0 8.74e+03  -6.3 3.01e-03 4.51e-03f  1
 259r 1.8398405e+02 1.23e-01 7.95e+02  -9.0 2.95e+03  -6.8 5.57e-02 4.13e-02f  1
iter    objective    inf_pr   inf_du lg(mu)  ||d||  lg(rg) alpha_du alpha_pr  ls
 260r 1.8399696e+02 1.22e-01 9.31e+02  -9.0 1.09e+04  -7.2 1.46e-02 2.55e-03f  1
 261r 1.8412007e+02 1.17e-01 8.60e+02  -9.0 2.51e+04  -7.7 1.33e-03 9.27e-03f  1
 262r 1.8411250e+02 1.17e-01 8.75e+02  -9.0 6.81e+05  -8.2 4.70e-04 1.62e-04f  1
 263r 1.8449706e+02 1.04e-01 1.10e+03  -9.0 2.95e+04  -7.8 5.46e-02 2.61e-02f  1
 264r 1.8449707e+02 1.03e-01 1.12e+03  -9.0 2.80e+02  -3.7 3.07e-10 5.60e-04f  1
 265r 1.8449709e+02 9.62e-02 1.06e+03  -9.0 6.73e+01  -3.3 1.22e-02 2.15e-02f  1
 266r 1.8449709e+02 9.62e-02 8.99e+02  -9.0 6.02e+02  -3.8 1.51e-03 2.64e-07f  1
 267r 1.8449720e+02 6.91e-02 9.22e+02  -9.0 6.37e+01  -3.4 2.21e-02 8.90e-02f  1
 268r 1.8449720e+02 6.91e-02 9.22e+02  -9.0 9.98e+01  -3.8 0.00e+00 1.76e-13R 11
 269r 1.8449720e+02 6.91e-02 9.90e+02  -9.0 4.41e+01  -3.4 1.04e-01 3.82e-14f 13
iter    objective    inf_pr   inf_du lg(mu)  ||d||  lg(rg) alpha_du alpha_pr  ls
 270r 1.8449708e+02 6.35e-02 1.81e+03  -9.0 7.69e+01  -3.9 1.60e-03 4.33e-02f  1
 271r 1.8449708e+02 6.32e-02 2.37e+03  -9.0 4.44e+01  -3.5 1.85e-01 2.96e-03f  1
 272r 1.8449715e+02 4.63e-02 2.20e+03  -9.0 1.31e+01  -3.0 5.42e-03 1.71e-01f  1
 273r 1.8449718e+02 4.22e-02 2.11e+03  -9.0 5.42e+00  -3.5 6.31e-02 7.36e-02f  1
 274r 1.8449726e+02 3.57e-02 2.27e+03  -9.0 7.76e+00  -4.0 2.30e-02 6.80e-02f  1
 275r 1.8449828e+02 2.67e-02 1.87e+03  -9.0 1.69e+01  -4.5 6.93e-02 1.60e-01f  1
 276r 1.8449829e+02 2.67e-02 1.84e+03  -9.0 1.50e+01  -3.1 5.01e-03 2.82e-02f  1
 277r 1.8449850e+02 2.67e-02 1.56e+03  -9.0 3.48e+00  -3.6 8.24e-02 1.48e-01f  1
 278r 1.8449885e+02 2.67e-02 1.62e+03  -9.0 8.78e+00  -4.1 5.31e-03 8.35e-02f  1
 279r 1.8449892e+02 2.67e-02 1.61e+03  -9.0 5.04e+01  -4.6 2.31e-02 3.97e-03f  1
iter    objective    inf_pr   inf_du lg(mu)  ||d||  lg(rg) alpha_du alpha_pr  ls
 280r 1.8450457e+02 2.67e-02 1.44e+03  -9.0 1.55e+02  -5.1 2.15e-02 1.06e-01f  1
 281r 1.8450483e+02 2.67e-02 1.44e+03  -9.0 5.35e+02  -5.5 2.98e-03 2.53e-03f  1
 282r 1.8453809e+02 2.67e-02 1.34e+03  -9.0 1.37e+03  -6.0 1.96e-02 7.02e-02f  1
 283r 1.8455785e+02 2.67e-02 1.63e+03  -9.0 3.93e+03  -6.5 2.25e-01 1.48e-02f  1
 284r 1.8458103e+02 2.67e-02 1.60e+03  -9.0 9.94e+03  -7.0 3.26e-02 7.54e-03f  1
 285r 1.8467261e+02 2.66e-02 1.46e+03  -9.0 6.69e+03  -7.4 4.75e-02 1.82e-02f  1
 286r 1.8472446e+02 2.66e-02 1.44e+03  -9.0 2.71e+04  -7.9 1.80e-09 4.09e-03f  1
 287r 1.8472627e+02 2.66e-02 1.51e+03  -9.0 7.66e+03  -7.5 3.28e-02 2.69e-04f  1
 288r 1.8478327e+02 2.65e-02 1.51e+03  -9.0 2.08e+04  -8.0 9.12e-03 3.32e-03f  1
 289r 1.8491651e+02 2.65e-02 1.40e+03  -9.0 5.73e+04  -8.4 1.52e-01 3.37e-03f  1
iter    objective    inf_pr   inf_du lg(mu)  ||d||  lg(rg) alpha_du alpha_pr  ls
 290r 1.8565735e+02 2.64e-02 1.34e+03  -9.0 1.96e+04  -8.0 4.39e-10 3.78e-02f  1
 291r 1.8565751e+02 2.64e-02 1.45e+03  -9.0 4.01e+04  -8.5 6.04e-02 3.46e-06f  1
 292r 1.8565823e+02 2.62e-02 1.90e+03  -9.0 7.61e+03  -5.4 1.40e-05 2.25e-03f  1
 293r 1.8566919e+02 2.62e-02 1.88e+03  -9.0 1.53e+02  -5.8 5.81e-01 7.42e-02f  1
 294r 1.8587941e+02 2.62e-02 1.03e+03  -9.0 2.40e+02  -6.3 4.14e-01 4.52e-01f  1
 295r 1.8618440e+02 2.62e-02 8.13e+02  -9.0 8.10e+02  -6.8 1.00e+00 2.10e-01f  1
 296r 1.8881471e+02 2.58e-02 2.94e+02  -9.0 2.18e+03  -7.3 7.19e-01 6.15e-01f  1
 297r 1.8929592e+02 2.58e-02 4.34e+02  -9.0 6.07e+03  -7.7 1.00e+00 3.94e-02f  1
 298r 1.9021778e+02 2.57e-02 8.98e+02  -9.0 1.63e+04  -8.2 1.00e+00 2.87e-02f  1
 299r 1.9602479e+02 2.49e-02 9.47e+02  -9.0 5.85e+04  -8.7 2.46e-01 7.34e-02f  1
iter    objective    inf_pr   inf_du lg(mu)  ||d||  lg(rg) alpha_du alpha_pr  ls
 300r 1.9847393e+02 2.47e-02 6.80e+02  -9.0 1.89e+04  -8.3 1.00e+00 6.49e-02f  1
 301r 2.0007541e+02 2.45e-02 8.31e+02  -9.0 6.83e+04  -8.7 1.85e-01 1.84e-02f  1
 302r 2.0074355e+02 2.44e-02 1.11e+03  -9.0 2.14e+04  -8.3 1.00e+00 1.93e-02f  1
 303r 2.0117052e+02 2.43e-02 1.13e+03  -9.0 7.73e+04  -8.8 3.43e-01 4.76e-03f  1
 304r 2.0215867e+02 2.42e-02 9.72e+02  -9.0 2.29e+04  -8.4 1.00e+00 2.67e-02f  1
 305r 2.0745159e+02 2.35e-02 1.22e+03  -9.0 8.66e+04  -8.9 5.67e-01 5.86e-02f  1
 306r 2.1815605e+02 2.25e-02 1.18e+03  -9.0 2.47e+05  -9.3 1.01e-01 3.23e-02f  1
 307r 2.2365158e+02 2.19e-02 1.11e+03  -9.0 7.13e+04  -8.9 9.30e-10 4.16e-02f  1
 308r 2.2367184e+02 2.19e-02 9.97e+02  -9.0 2.27e+04  -8.5 3.92e-01 3.91e-04f  1
 309r 2.3290722e+02 2.08e-02 9.76e+02  -9.0 2.81e+05  -9.0 5.10e-03 2.93e-02f  1
iter    objective    inf_pr   inf_du lg(mu)  ||d||  lg(rg) alpha_du alpha_pr  ls
 310r 2.3290723e+02 2.08e-02 9.81e+02  -9.0 1.85e+05  -9.4 4.94e-02 1.22e-08h  1
 311r 2.4175538e+02 2.04e-02 1.18e+03  -9.0 6.60e+04  -9.0 1.00e+00 6.84e-02f  1
 312r 2.5031567e+02 2.01e-02 1.30e+03  -9.0 2.01e+05  -9.5 2.06e-01 3.07e-02f  1
 313r 2.5046765e+02 2.01e-02 1.29e+03  -9.0 7.38e+04  -9.1 8.18e-02 1.14e-03f  1
 314r 2.7011838e+02 1.95e-02 1.16e+03  -9.0 2.28e+05  -9.5 5.36e-07 5.68e-02f  1
 315r 2.7027951e+02 1.95e-02 1.25e+03  -9.0 8.25e+04  -9.1 1.00e+00 1.01e-03f  1
 316r 3.0332820e+02 1.87e-02 1.05e+03  -9.0 2.65e+05  -9.6 5.56e-06 7.50e-02f  1
 317r 3.0499564e+02 1.86e-02 1.20e+03  -9.0 9.56e+04  -9.2 1.00e+00 9.38e-03f  1
 318r 3.1205769e+02 1.83e-02 1.06e+03  -9.0 3.71e+04  -8.7 2.76e-01 9.71e-02f  1
 319r 3.5840700e+02 1.99e-02 8.03e+02  -9.0 1.02e+05  -9.2 3.86e-03 2.34e-01f  1
In iteration 319, 1 Slack too small, adjusting variable bound
iter    objective    inf_pr   inf_du lg(mu)  ||d||  lg(rg) alpha_du alpha_pr  ls
 320r 3.5840798e+02 1.99e-02 7.25e+02  -9.0 4.04e+04  -8.8 9.61e-01 1.10e-05h  1
 321r 3.8287280e+02 2.11e-02 2.80e+02  -9.0 1.57e+04  -8.4 1.00e+00 6.34e-01f  1
 322r 3.9510149e+02 2.20e-02 3.06e+02  -9.0 8.85e+04  -8.8 3.70e-01 1.33e-01f  1
 323r 3.9513822e+02 2.20e-02 3.06e+02  -9.0 1.28e+06  -8.4 7.78e-09 3.21e-04f  1
 324r 3.9513929e+02 2.20e-02 6.86e+02  -9.0 1.52e+04  -8.0 1.00e+00 6.61e-05h  1
 325r 3.9603626e+02 2.21e-02 5.18e+02  -9.0 4.31e+03  -7.6 5.90e-01 2.96e-01f  1
 326r 4.0307394e+02 2.26e-02 1.86e+02  -9.0 3.59e+03  -8.0 4.86e-01 7.11e-01f  1
 327r 4.0376950e+02 2.27e-02 1.82e+02  -9.0 9.19e+03  -8.5 3.87e-02 3.37e-02f  1
 328r 4.0714904e+02 2.29e-02 2.75e+02  -9.0 2.67e+04  -9.0 2.34e-01 4.96e-02f  1
 329r 4.1318970e+02 2.33e-02 2.26e+02  -9.0 1.17e+04  -8.6 8.43e-02 1.81e-01f  1
iter    objective    inf_pr   inf_du lg(mu)  ||d||  lg(rg) alpha_du alpha_pr  ls
 330r 4.1838749e+02 2.35e-02 2.17e+02  -9.0 4.80e+04  -9.0 1.66e-01 3.78e-02f  1
 331r 4.3078781e+02 2.47e-02 1.90e+02  -9.0 4.23e+04  -9.5 9.66e-02 1.27e-01f  1
 332r 4.4569180e+02 2.58e-02 7.86e+02  -9.0 6.73e+04 -10.0 8.03e-01 8.21e-02f  1
 333r 4.5385317e+02 2.67e-02 6.39e+02  -9.0 1.22e+05 -10.5 1.22e-09 5.60e-02f  1
 334r 4.7397696e+02 2.74e-02 4.01e+02  -9.0 2.66e+05 -10.0 1.36e-08 6.66e-02f  1
 335r 4.7498291e+02 2.75e-02 5.29e+02  -9.0 3.68e+04  -9.6 3.71e-01 1.08e-02f  1
 336r 4.8345044e+02 2.80e-02 9.09e+02  -9.0 1.72e+05 -10.1 2.11e-01 4.66e-02f  1
 337r 4.8960439e+02 2.79e-02 1.16e+03  -9.0 4.21e+04  -9.7 4.89e-01 5.55e-02f  1
 338r 5.2692883e+02 2.75e-02 3.25e+02  -9.0 2.56e+04  -9.2 9.29e-01 4.45e-01f  1
 339r 5.3924132e+02 2.70e-02 2.44e+02  -9.0 2.08e+05  -9.7 2.91e-09 4.07e-02f  1
iter    objective    inf_pr   inf_du lg(mu)  ||d||  lg(rg) alpha_du alpha_pr  ls
 340r 5.5630478e+02 2.69e-02 4.02e+02  -9.0 2.15e+04  -9.3 1.00e+00 2.63e-01f  1
 341r 5.6915930e+02 2.67e-02 4.17e+02  -9.0 9.91e+03  -8.9 1.00e+00 3.86e-01f  1
In iteration 341, 1 Slack too small, adjusting variable bound
 342r 6.2186346e+02 2.55e-02 2.47e+02  -9.0 5.90e+04  -9.3 4.59e-01 4.08e-01f  1
 343r 6.2319929e+02 2.54e-02 4.45e+02  -9.0 3.23e+03  -8.0 7.71e-01 1.47e-01f  1
 344r 6.3030350e+02 2.52e-02 2.72e+02  -9.0 6.59e+03  -8.5 8.71e-01 2.37e-01f  1
 345r 6.4537961e+02 4.18e-02 4.02e+02  -9.0 5.99e+05  -9.0 1.78e-03 1.49e-02f  1
 346r 6.8254181e+02 2.31e-02 9.48e+01  -9.0 8.78e+03  -8.5 2.71e-01 8.43e-01f  1
 347r 6.9799091e+02 2.24e-02 1.07e+01  -9.0 5.78e+03  -8.1 9.11e-01 8.68e-01f  1
 348r 7.7553749e+02 2.35e-02 9.97e+00  -9.0 1.82e+04  -8.6 1.00e+00 9.89e-01f  1
 349r 7.8445357e+02 1.85e-02 6.76e+01  -9.0 9.14e+03  -8.2 1.72e-01 3.19e-01f  1
iter    objective    inf_pr   inf_du lg(mu)  ||d||  lg(rg) alpha_du alpha_pr  ls
 350r 7.8445296e+02 1.85e-02 2.33e+02  -9.0 4.04e+03  -7.7 1.89e-01 8.47e-05h  1
 351r 7.8445296e+02 1.85e-02 9.58e+02  -9.0 4.06e+03  -8.2 1.00e+00 1.37e-07h  2
 352r 7.9701476e+02 1.86e-02 5.68e+00  -9.0 5.68e+03  -8.7 1.00e+00 1.00e+00f  1
In iteration 352, 1 Slack too small, adjusting variable bound
 353r 8.2004441e+02 1.84e-02 1.26e+01  -9.0 2.92e+05    -  7.56e-02 4.89e-02f  1
 354r 8.5117469e+02 1.81e-02 4.23e+02  -9.0 2.72e+05    -  1.00e+00 6.16e-02f  1
 355r 8.9132395e+02 1.78e-02 4.06e+02  -9.0 2.51e+05    -  1.00e+00 7.91e-02f  1
 356r 1.0491678e+03 3.77e-02 2.05e+02  -9.0 1.31e+05    -  1.00e+00 3.07e-01f  1
 357r 1.3668549e+03 3.25e-02 1.47e+02  -9.0 6.81e+04    -  1.44e-06 9.21e-01f  1
 358r 1.4408341e+03 1.69e-02 4.09e+00  -9.0 1.41e+04    -  1.00e+00 9.58e-01h  1
 359r 1.4458069e+03 1.69e-02 4.93e+00  -9.0 1.55e+03    -  6.19e-03 1.00e+00h  1
iter    objective    inf_pr   inf_du lg(mu)  ||d||  lg(rg) alpha_du alpha_pr  ls
 360r 1.4457403e+03 1.69e-02 1.35e-06  -9.0 1.91e+01    -  1.00e+00 1.00e+00h  1

Number of Iterations....: 360

                                   (scaled)                 (unscaled)
Objective...............:   1.4457403086020508e+03    1.4457403086020508e+03
Dual infeasibility......:   2.8200000747451988e-03    2.8200000747451988e-03
Constraint violation....:   1.6855036524347611e-02    1.6855036524347611e-02
Complementarity.........:   1.1238957905746803e-09    1.1238957905746803e-09
Overall NLP error.......:   1.6855036524347611e-02    1.6855036524347611e-02


Number of objective function evaluations             = 657
Number of objective gradient evaluations             = 22
Number of equality constraint evaluations            = 662
Number of inequality constraint evaluations          = 0
Number of equality constraint Jacobian evaluations   = 368
Number of inequality constraint Jacobian evaluations = 0
Number of Lagrangian Hessian evaluations             = 361
Total CPU secs in IPOPT (w/o function evaluations)   =      1.062
Total CPU secs in NLP function evaluations           =     15.002

EXIT: Converged to a point of local infeasibility. Problem may be infeasible.
